db/data/19982596210859323028380187592306918199.z3.out
-------------------
2500.169384559
